NAME: tsp_483
COMMENT: Random TSP instance
TYPE: TSP
DIMENSION: 50
EDGE_WEIGHT_TYPE: EUC_2D
NODE_COORD_SECTION
1 716 458
2 690 19
3 171 496
4 222 965
5 311 245
6 683 537
7 430 877
8 183 882
9 69 844
10 762 166
11 910 69
12 51 441
13 852 233
14 657 393
15 557 813
16 34 930
17 849 803
18 638 594
19 802 705
20 654 438
21 89 99
22 511 803
23 187 597
24 615 438
25 650 581
26 36 470
27 286 520
28 567 998
29 203 249
30 333 234
31 187 446
32 508 169
33 140 921
34 651 263
35 75 166
36 952 272
37 139 169
38 230 740
39 584 702
40 120 73
41 457 602
42 352 934
43 579 874
44 399 315
45 832 91
46 214 261
47 137 968
48 192 742
49 655 441
50 656 670
